5 5
3 54 2 61 1 16 0 67 4 59
4 47 0 48 1 64 3 50 2 85
0 41 1 72 3 22 4 54 2 5
2 17 3 78 1 41 4 92 0 95
1 81 0 35 4 40 2 22 3 48
-1
0 2 3 4 5
0 2 5
0 3 4 5
0 1 2 3 5
0 1 2 5
-2
143 132 285 348
128 376
170 197 304
21 146 151 387
101 125 247

390 5
21 6 10 3 19
20 2 17 7 11
15 1 23 9 14
0 16 24 8 12
5 22 18 4 13
